\ LP format - for model browsing. Use MPS format to capture full model detail.
Minimize
  5 x0 - 5 x1
Subject To
 constr(0): 5 x0 - 5 x1 >= -8
 constr(1): 2 x0 + x1 >= -1
Bounds
 x0 <= 1
 x1 <= 4
End
